c ---- [ banner ] ------------------------------------------------------------
c
c KISSAT SAT Solver
c Copyright (c) 2019-2021 Armin Biere JKU Linz
c 
c Version 2.0.1 02cd69626a53e93e09286b1978ccb5d6bec58b8e
c Apple clang version 13.1.6 (clang-1316.0.21.2) -W -Wall -O3 -DNDEBUG
c Thu Mar 31 15:34:51 EDT 2022 Darwin Randals-Macbook-Pro.local 21.2.0 arm64
c
c ---- [ proving ] -----------------------------------------------------------
c
c opened and writing proof to DRAT file:
c
c   chew-26-123457.drat
c
c ---- [ parsing ] -----------------------------------------------------------
c
c opened and reading DIMACS file:
c
c   chew-26-123457.cnf
c
c parsed 'p cnf 72 192' header
c closing input after reading 2341 bytes (2 KB)
c finished parsing after 0.00 seconds
c
c ---- [ options ] -----------------------------------------------------------
c
c --stable=0                       (different from default '1')
c
c ---- [ solving ] -----------------------------------------------------------
c
c  seconds switched rate      trail  variables
c         MB reductions conflicts glue   remaining
c          level restarts redundant irredundant
c
c *  0.00  0 0 0 0  0 0   0   0 0% 0 192 72 99%
c {  0.00  0 0 0 0  0 0   0   0 0% 0 192 72 99%
c -  0.00  0 21 0 1  0 1 301  41 86% 15 192 72 99%
c -  0.01  0 19 0 2  0 1 1302 154 76% 13 192 72 99%
c e  0.02  0 17 0 2  0 2 2657 615 68% 13 184 48 66%
c e  0.02  0 17 0 2  0 2 2657 615 68% 13 184 47 64%
c -  0.02  0 17 0 3 16 2 2717  14 68% 13 184 47 64%
c v  0.02  0 17 0 3 17 2 2717   6 68% 13 184 47 64%
c -  0.03  0 17 0 4 710 4 4449  22 80% 15 184 47 64%
c ^  0.03  0 17 0 4 853 4 5275  51 83% 15 184 47 64%
c -  0.04  0 17 0 5 870 3 6449  28 85% 15 184 47 64%
c -  0.05  0 17 0 6 982 3 8685  31 87% 15 184 47 64%
c ^  0.07  0 17 0 6 994 2 10949 103 89% 15 184 47 64%
c -  0.07  0 17 0 7 1030 2 11135  31 89% 15 184 47 64%
c -  0.08  0 17 0 8 1046 2 13781  35 90% 15 184 47 64%
c -  0.10  0 16 0 9 1046 2 16609  38 91% 15 184 47 64%
c -  0.12  0 16 0 10 1122 2 19609  38 91% 15 184 47 64%
c ^  0.12  0 16 0 10 1142 2 20087  56 91% 15 184 47 64%
c -  0.14  0 16 0 11 1159 2 22771  44 92% 15 184 47 64%
c -  0.16  0 16 0 12 1163 2 26087  45 92% 15 184 47 64%
c
c  seconds  switched    rate         trail   variables
c         MB  reductions  conflicts      glue    remaining
c          level   restarts    redundant irredundant
c
c -  0.18  0 16 0 13 1175 1 29551  46 92% 15 184 47 64%
c e  0.20  0 16 0 13 1175 1 33073 158 92% 15 192 45 62%
c ^  0.20  0 16 0 13 1175 1 33073 158 92% 15 192 45 62%
c -  0.20  0 16 0 14 1175 1 33157  44 92% 15 192 45 62%
c -  0.22  0 15 0 15 1175 1 36899  48 92% 14 192 45 62%
c -  0.24  0 16 0 16 1417 1 40771  49 92% 14 192 45 62%
c -  0.26  0 15 0 17 1454 1 44771  52 93% 14 192 45 62%
c -  0.29  0 15 0 18 1493 1 48895  51 93% 14 192 45 62%
c ^  0.29  0 15 0 18 1493 1 50527 103 93% 14 192 45 62%
c -  0.31  0 15 0 19 1493 1 53137  54 93% 14 192 45 62%
c -  0.33  0 15 0 20 1552 1 57495  55 93% 14 192 45 62%
c -  0.36  0 15 0 21 1552 1 61967  56 93% 14 192 45 62%
c -  0.38  0 15 0 22 1552 1 66549  60 93% 14 192 45 62%
c -  0.41  0 15 0 23 1684 1 71240  57 93% 14 192 45 62%
c e  0.42  0 15 0 23 1859 1 72578 100 93% 14 336 36 49%
c !  0.42  0 15 0 23 1859 1 72578 100 93% 14 336 36 49%
c -  0.43  0 15 0 24 1859 1 76036 605 92% 14 336 36 49%
c -  0.45  0 15 0 25 1859 1 80934 1263 90% 13 336 36 49%
c u  0.46  0 15 0 25 1859 1 82084 1481 90% 13 336 36 49%
c -  0.48  0 15 0 26 1859 1 85934 1762 88% 13 336 36 49%
c
c  seconds  switched    rate          trail   variables
c         MB  reductions  conflicts       glue    remaining
c          level   restarts    redundant  irredundant
c
c -  0.51  0 14 0 27 1859 1 91034 2423 86% 13 336 36 49%
c -  0.54  0 14 0 28 1859 1 96230 2739 85% 12 336 36 49%
c u  0.54  0 14 0 28 1859 1 96623 491 85% 12 336 36 49%
c v  0.54  0 14 0 28 1859 1 96629 462 85% 12 336 36 49%
c w  0.54  0 14 0 28 1859 1 96629 462 85% 12 336 36 49%
c i  0.55  0 14 0 28 1859 1 98679 807 84% 12 336 35 48%
c -  0.57  0 14 0 29 1859 1 101521 925 83% 12 328 35 48%
c -  0.59  0 14 0 30 1859 1 106906 2084 81% 11 316 35 48%
c i  0.60  0 13 0 30 1859 1 109122 2257 80% 11 316 34 47%
c i  0.61  0 13 0 30 1859 1 111614 2941 79% 11 316 33 45%
c i  0.61  0 13 0 30 1859 1 112040 3035 79% 11 316 31 42%
c i  0.61  0 13 0 30 1859 1 112098 3038 79% 11 316 30 41%
c i  0.61  0 13 0 30 1859 1 112132 3041 79% 11 316 29 40%
c u  0.61  0 13 0 30 1859 1 112184 183 79% 11 180 29 40%
c v  0.61  0 13 0 30 1859 1 112196 155 79% 11 180 29 40%
c w  0.62  0 13 0 30 1859 1 112206 157 79% 11 172 29 40%
c =  0.62  0 13 0 30 1859 1 112206 159 79% 11 156 14 19%
c }  0.62  0 13 0 30 1859 1 112206 159 79% 11 156 15 21%
c 0  0.62  0 13 0 30 1859 1 112206 159 79% 11 156 15 21%
c
c ---- [ result ] ------------------------------------------------------------
c
s UNSATISFIABLE
c
c ---- [ profiling ] ---------------------------------------------------------
c
c           0.59   96.02 %  search
c           0.59   96.02 %  focused
c           0.02    3.94 %  simplify
c           0.02    3.30 %  probe
c           0.02    2.72 %  reduce
c           0.01    1.46 %  vivify
c           0.01    1.11 %  substitute
c           0.00    0.64 %  eliminate
c           0.00    0.63 %  sweep
c           0.00    0.04 %  subsume
c           0.00    0.03 %  transitive
c           0.00    0.02 %  ternary
c           0.00    0.02 %  backbone
c           0.00    0.01 %  parse
c           0.00    0.01 %  failed
c =============================================
c           0.62  100.00 %  total
c
c ---- [ statistics ] --------------------------------------------------------
c
c clauses_learned:                     101783               91 %  conflicts
c conflicts:                           112206           182066.88 per second
c decisions:                           148801                1.33 per conflict
c forward_strengthened:                     8                2 %  strengthened
c kitten_conflicts:                      1313                0.75 per solved
c kitten_decisions:                     27394               15.60 per solved
c kitten_propagations:                  42947               24.46 per solved
c kitten_sat:                            1695               97 %  solved
c kitten_solved:                         1756 
c kitten_ticks:                        180745                4.21 per propagation
c kitten_unknown:                          15                1 %  solved
c kitten_unsat:                            46                3 %  solved
c literals_bumped:                    3502416               34.41 per clause
c literals_deduced:                   2094558               20.58 per clause
c literals_learned:                   1363142               13.39 per clause
c literals_minimized:                       0                0 %  deduced
c literals_minimize_shrunken:            5096                1 %  shrunken
c literals_shrunken:                   731422               35 %  deduced
c propagations:                       1343267          2179602    per second
c reductions:                              30             3740    interval
c restarts:                              1859               60.36 interval
c restarts_reused_trails:                1859              100 %  restarts
c strengthened:                           361                1 %  checks
c subsumption_checks:                   57524 
c subsumed:                             87245              152 %  checks
c sweep:                                   18             6234    interval
c sweep_completed:                          4                4    sweeps
c sweep_equivalences:                       1                1    variables
c sweep_sat:                             1695               99 %  sweep_solved
c sweep_solved:                          1716               98 %  kitten_solved
c sweep_units:                             14               19 %  variables
c sweep_unsat:                              6                0 %  sweep_solved
c sweep_variables:                        137              188 %  variables
c
c ---- [ proof ] -------------------------------------------------------------
c
c proof_added:                         110470               50 %  per line
c proof_bytes:                       10484378               10 MB 
c proof_deleted:                       110202               50 %  per line
c
c ---- [ resources ] ---------------------------------------------------------
c
c maximum-resident-set-size:       4093640704 bytes       3904 MB
c process-time:                             1s               0.62 seconds
c
c ---- [ shutting down ] -----------------------------------------------------
c
c exit 20
-rw-r--r--  1 bryant  staff  10484378 Mar 11 02:56 chew-26-123457.drat
c parsing input formula with 72 variables and 192 clauses
c finished parsing
c detected empty clause; start verification via backward checking
c 192 of 192 clauses in core                            
c 35952 of 110471 lemmas in core using 257609 resolution steps
c 0 RAT lemmas in core; 138 redundant literals in core lemmas
s VERIFIED
c verification time: 0.369 seconds
